NAME: random-15-14851
TYPE: TSP
COMMENT: size=15 seed=14851
DIMENSION: 32
EDGE_WEIGHT_TYPE: EUC_2D
NODE_COORD_SECTION
+0 757 308
-0 757 308
+1 366 75
-1 338 771
+2 537 352
-2 775 104
+3 712 831
-3 866 751
+4 628 621
-4 822 988
+5 453 66
-5 697 8
+6 358 208
-6 94 561
+7 250 874
-7 754 533
+8 353 729
-8 953 205
+9 564 48
-9 830 696
+10 721 495
-10 839 300
+11 10 882
-11 168 155
+12 744 600
-12 50 385
+13 951 290
-13 723 606
+14 949 639
-14 236 800
+15 977 442
-15 650 585
PRECEDENCE_SECTION
+0 -0
+1 -1
+2 -2
+3 -3
+4 -4
+5 -5
+6 -6
+7 -7
+8 -8
+9 -9
+10 -10
+11 -11
+12 -12
+13 -13
+14 -14
+15 -15
EOF
